array [1..6] of int: X_INTRODUCED_19_ = [11,-3,2,5,9,-6];
var 0..1: X_INTRODUCED_0_;
var 0..1: X_INTRODUCED_1_;
var 0..1: X_INTRODUCED_2_;
var 0..1: X_INTRODUCED_3_;
var 0..1: X_INTRODUCED_4_;
var 0..1: X_INTRODUCED_5_;
array [1..6] of var int: x:: output_array([1..6]) = [X_INTRODUCED_0_,X_INTRODUCED_1_,X_INTRODUCED_2_,X_INTRODUCED_3_,X_INTRODUCED_4_,X_INTRODUCED_5_];
constraint int_lin_eq(X_INTRODUCED_19_,[X_INTRODUCED_0_,X_INTRODUCED_1_,X_INTRODUCED_2_,X_INTRODUCED_3_,X_INTRODUCED_4_,X_INTRODUCED_5_],1):: soften;
solve :: int_search(x,input_order,indomain_max,complete) satisfy;
